% seed = 0

mint = 37;
% maxt = 217;

nActs = 92;
dur = [0,3,4,1,3,2,2,5,1,3,2,3,1,4,2,3,3,1,5,4,1,1,1,4,5,3,2,1,1,2,2,3,3,2,4,3,4,1,2,4,2,3,3,2,5,1,2,4,1,4,1,2,1,2,3,2,3,1,2,1,2,1,3,2,4,2,5,3,3,2,2,2,2,2,1,3,2,2,1,2,4,2,3,2,2,3,2,1,2,2,2,0];

nSkills = 15;
sreq = [| 0,0,0,0,0,0,0,0,0,0,0,0,0,0,0,
	| 0,0,0,1,2,0,1,0,0,0,0,0,0,1,1,
	| 0,0,0,0,0,0,0,0,0,1,0,0,0,0,0,
	| 0,0,1,1,0,0,1,0,0,0,0,1,0,0,0,
	| 0,0,0,0,1,0,0,0,0,0,0,0,0,0,1,
	| 0,0,1,0,0,0,0,0,0,0,0,0,0,0,0,
	| 0,0,2,0,0,1,0,1,1,0,1,1,0,0,0,
	| 0,0,0,0,0,3,0,0,1,0,0,0,0,1,1,
	| 0,0,1,0,0,0,0,0,0,0,0,0,0,1,0,
	| 0,0,1,0,1,0,0,1,0,0,0,3,0,2,0,
	| 0,0,0,1,1,0,1,0,2,0,0,0,0,1,0,
	| 0,1,0,0,0,1,0,1,0,1,1,0,0,1,0,
	| 0,0,2,0,3,0,0,0,1,0,1,0,0,1,0,
	| 0,0,0,0,0,0,0,0,0,1,2,0,0,2,0,
	| 0,0,1,0,0,1,0,0,0,0,0,0,0,0,0,
	| 0,0,0,0,0,1,0,0,1,0,0,1,0,1,0,
	| 0,0,0,0,1,1,0,0,0,0,1,0,1,1,0,
	| 1,0,1,0,2,0,0,0,0,0,1,0,0,1,1,
	| 0,0,2,0,1,0,0,0,3,0,0,0,0,1,0,
	| 0,0,1,0,2,1,0,2,1,0,0,0,1,0,1,
	| 0,0,1,0,1,0,0,0,1,0,0,0,0,0,1,
	| 0,0,0,0,0,2,0,0,0,1,0,2,0,1,1,
	| 0,0,1,0,1,1,0,0,1,0,0,2,0,1,0,
	| 0,0,0,0,0,0,0,0,1,0,0,0,0,0,0,
	| 0,0,0,0,0,0,0,0,0,0,0,1,0,1,1,
	| 0,0,0,0,0,0,0,0,0,1,0,0,0,1,0,
	| 0,0,0,0,1,0,0,0,0,0,0,2,0,1,0,
	| 0,0,2,0,0,1,0,1,0,1,0,0,0,0,0,
	| 0,0,0,0,2,0,0,1,0,1,0,1,0,0,2,
	| 0,0,0,0,0,0,0,0,1,1,0,0,0,0,0,
	| 0,0,0,0,0,1,1,0,0,0,0,1,1,1,2,
	| 0,0,0,0,1,0,0,0,0,0,0,0,0,0,0,
	| 0,0,0,0,0,2,0,0,0,0,1,2,0,1,1,
	| 0,0,3,0,0,2,0,1,2,0,0,0,0,0,0,
	| 0,1,1,0,0,0,0,0,0,0,1,0,0,1,0,
	| 0,0,0,0,1,2,1,0,1,0,1,2,0,0,1,
	| 0,1,1,1,0,1,0,0,0,0,0,0,0,0,0,
	| 0,0,0,0,0,3,0,0,0,0,1,1,0,1,0,
	| 0,0,3,0,3,0,0,1,0,0,1,0,0,0,0,
	| 0,0,0,0,0,0,0,0,1,0,0,0,0,0,0,
	| 0,1,0,0,1,0,0,0,0,1,2,2,0,1,0,
	| 0,0,1,1,0,0,0,0,1,1,1,0,0,1,0,
	| 0,0,1,0,1,1,0,0,0,0,0,0,0,0,1,
	| 0,0,0,1,1,2,1,0,0,0,0,0,0,2,1,
	| 0,0,2,0,0,1,0,0,2,0,1,1,0,0,0,
	| 0,1,0,0,1,1,0,0,1,0,1,2,0,1,0,
	| 0,0,1,0,0,0,0,0,0,0,0,0,0,0,0,
	| 0,0,1,0,0,0,0,1,0,0,0,1,0,0,0,
	| 0,0,0,0,0,0,0,0,0,0,0,1,0,0,0,
	| 0,1,0,0,0,0,0,2,1,0,1,1,0,2,0,
	| 0,0,0,0,1,0,0,0,0,1,1,0,0,2,1,
	| 0,0,1,0,2,2,0,1,1,0,1,1,0,0,0,
	| 0,0,0,0,0,0,0,0,1,0,0,0,0,0,0,
	| 0,0,0,0,1,0,1,1,1,0,1,0,1,0,2,
	| 0,0,0,0,0,1,0,0,0,0,0,0,0,0,0,
	| 0,0,0,0,0,2,0,0,1,0,0,1,0,2,0,
	| 0,0,1,0,2,0,1,0,0,0,0,1,0,1,0,
	| 0,0,0,0,2,0,0,1,1,1,0,0,0,3,1,
	| 0,0,0,0,0,1,0,0,1,0,0,0,0,0,1,
	| 0,0,1,0,0,2,1,0,0,0,0,0,0,0,0,
	| 0,0,1,0,1,0,0,0,0,1,0,1,0,0,1,
	| 0,0,0,0,0,0,0,0,0,0,1,0,0,0,0,
	| 0,0,0,0,2,0,0,1,1,0,1,0,0,1,0,
	| 0,0,0,0,1,1,0,0,0,0,0,2,1,1,0,
	| 0,0,1,0,0,0,1,2,0,1,0,2,0,1,1,
	| 0,0,1,1,0,1,0,0,1,1,0,0,0,1,0,
	| 0,0,1,0,0,1,0,1,0,0,0,0,1,0,0,
	| 0,0,2,0,1,2,0,0,1,0,0,3,0,0,0,
	| 0,0,0,0,0,1,0,0,0,0,0,0,0,0,0,
	| 0,0,0,0,0,0,0,0,0,0,0,0,0,1,0,
	| 0,1,0,0,2,2,1,0,0,0,0,1,0,0,1,
	| 0,0,1,0,1,2,0,0,1,1,2,0,0,1,0,
	| 0,0,0,0,0,0,0,1,1,0,0,1,0,0,0,
	| 0,1,0,0,3,0,0,0,0,0,0,1,0,0,0,
	| 0,0,0,0,0,0,0,0,0,0,1,0,0,0,0,
	| 0,0,1,0,1,1,0,1,0,0,1,1,0,1,1,
	| 0,0,3,0,0,0,0,0,1,0,1,2,0,1,0,
	| 0,0,0,0,2,1,0,1,1,0,1,1,0,0,0,
	| 0,0,0,0,0,1,0,0,0,1,1,0,0,0,0,
	| 0,0,0,1,1,0,0,0,0,0,0,0,0,2,0,
	| 0,0,0,0,1,0,0,0,0,0,0,0,0,1,0,
	| 0,0,1,1,1,0,0,0,0,0,0,0,0,0,0,
	| 0,1,0,1,0,0,0,0,0,0,0,0,0,2,0,
	| 0,0,0,0,1,0,1,0,0,0,0,0,0,0,0,
	| 0,0,0,0,1,0,0,0,1,0,0,1,0,1,1,
	| 0,0,0,0,2,1,0,1,1,1,1,1,0,0,0,
	| 0,0,1,0,0,1,0,0,2,1,1,0,0,1,0,
	| 0,0,0,0,0,1,0,0,0,0,0,0,0,0,0,
	| 0,0,1,0,1,0,1,0,1,1,0,2,0,1,1,
	| 0,0,1,0,1,0,1,0,0,0,0,0,0,0,1,
	| 0,0,1,0,0,2,0,1,0,0,0,0,0,1,0,
	| 0,0,0,0,0,0,0,0,0,0,0,0,0,0,0, |];

% SumOfsreq = 454;

nResources = 29;
mastery = [| false,false,false,false,true,true,true,true,true,false,false,false,false,false,false,
	| false,true,true,false,false,false,false,false,false,false,false,false,false,false,false,
	| true,true,true,true,true,true,true,true,true,false,true,true,false,false,false,
	| false,false,false,false,false,false,true,true,true,false,false,false,false,false,false,
	| false,false,false,false,false,false,false,false,false,false,false,true,false,false,false,
	| false,false,false,false,false,false,false,false,false,true,true,true,false,false,false,
	| false,false,true,false,false,false,false,false,false,false,false,false,false,false,false,
	| false,false,false,false,false,false,false,false,false,true,true,true,false,false,false,
	| false,false,false,false,false,false,false,false,false,false,false,false,false,false,true,
	| false,false,false,false,true,true,false,false,false,false,false,false,false,false,false,
	| false,false,false,false,false,false,false,false,false,false,false,false,true,true,true,
	| false,false,false,false,true,true,false,false,false,false,false,false,false,false,false,
	| false,false,true,false,false,false,false,false,false,false,false,true,false,false,false,
	| false,false,false,true,true,true,false,false,false,false,false,false,false,false,false,
	| false,false,false,false,false,false,false,false,true,false,false,false,false,false,false,
	| false,false,false,true,true,true,false,false,false,false,false,false,false,false,false,
	| false,false,false,false,false,false,false,false,false,false,false,false,false,true,true,
	| false,false,false,false,false,false,false,false,true,false,false,false,false,false,false,
	| false,false,false,false,false,false,false,false,false,false,false,false,false,true,true,
	| false,false,true,false,false,false,false,false,false,false,false,false,false,false,false,
	| false,false,false,false,true,true,false,false,false,false,false,false,false,false,false,
	| false,false,false,false,false,false,false,false,false,false,false,false,false,false,true,
	| false,false,false,false,false,true,false,true,true,false,false,false,false,false,false,
	| false,false,false,false,true,true,false,false,false,false,false,false,false,false,false,
	| false,false,false,false,false,false,false,false,false,true,true,true,false,false,false,
	| false,false,false,false,false,false,false,false,false,true,true,true,false,false,false,
	| false,false,false,false,false,false,false,true,true,false,false,false,false,false,false,
	| false,false,false,true,true,true,false,false,false,false,false,false,false,true,true,
	| false,false,false,false,false,false,false,false,false,false,false,false,true,true,true, |];

nPrecs = 194;
pred = [1,1,1,2,2,2,3,3,3,4,4,4,5,5,6,6,6,7,7,7,8,8,8,9,9,9,10,10,10,11,11,11,12,12,12,13,13,13,14,14,14,15,15,16,16,16,17,17,18,18,18,19,19,19,20,20,21,22,22,23,23,23,24,24,24,25,25,25,26,26,26,27,27,27,28,28,28,29,29,30,30,31,32,32,32,33,33,33,34,34,34,35,35,35,36,36,36,37,38,38,39,39,39,40,40,41,41,41,42,42,43,43,43,44,44,44,45,45,46,46,47,48,48,48,49,49,50,50,50,51,51,51,52,53,53,53,54,54,54,55,55,56,56,57,57,58,58,58,59,60,61,61,62,62,62,63,63,64,64,65,65,66,67,68,68,69,69,70,71,71,72,72,72,73,74,75,76,77,78,79,80,81,82,83,83,83,84,85,86,87,88,89,90,91];
succ = [2,3,4,10,29,6,5,14,7,9,17,8,27,45,28,30,16,27,22,23,11,20,40,58,15,40,17,68,12,36,13,48,49,44,30,18,52,34,25,35,55,21,86,33,38,23,19,35,73,70,32,51,37,22,67,24,26,86,47,49,35,78,25,90,63,59,31,56,57,38,39,74,37,87,43,55,47,73,31,78,39,62,43,53,46,50,60,80,49,50,57,46,47,62,42,38,46,65,82,67,41,65,67,41,42,75,60,85,74,78,76,71,63,50,59,53,59,61,81,58,70,51,68,53,73,54,75,72,56,81,52,56,75,77,54,64,81,58,66,57,77,66,69,68,62,60,86,72,76,89,63,72,65,69,64,79,64,91,85,66,70,71,74,69,80,87,71,88,82,79,83,76,87,84,77,82,79,90,80,84,83,83,88,90,84,88,85,89,91,89,91,92,92,92];

nUnrels = 2372;
unpred = [2,2,2,2,2,2,2,2,2,2,2,2,2,2,2,2,2,2,2,2,2,2,2,2,2,3,3,3,3,3,3,3,3,3,3,3,3,3,3,3,3,3,3,3,3,3,3,3,3,3,3,3,3,3,3,3,3,3,3,3,3,3,3,4,4,4,4,4,4,4,4,4,4,4,4,4,4,4,4,4,5,5,5,5,5,5,5,5,5,5,5,5,5,5,5,5,5,5,5,5,5,5,5,5,5,5,5,5,5,5,5,5,5,5,5,5,5,5,5,5,5,5,5,5,5,5,5,5,5,5,5,5,5,5,5,5,5,5,5,5,5,6,6,6,6,6,6,6,6,6,6,6,6,6,6,6,6,6,6,6,6,6,6,6,6,6,6,6,6,6,6,6,6,6,6,6,7,7,7,7,7,7,7,7,7,7,7,7,7,7,7,7,7,7,7,7,7,7,7,7,7,7,7,7,7,7,7,7,7,7,7,7,7,7,7,7,7,7,7,7,7,7,7,8,8,8,8,8,8,8,8,8,8,8,8,8,8,8,8,8,8,8,8,8,8,8,8,8,9,9,9,9,9,9,9,9,9,9,9,9,9,9,9,9,9,9,9,9,9,9,9,9,9,9,9,9,9,9,9,9,9,9,9,9,9,9,9,9,9,9,9,9,10,10,10,10,10,10,10,10,10,10,10,10,10,10,10,10,10,10,10,10,10,10,10,10,10,10,10,10,10,10,11,11,11,11,11,11,11,11,11,11,11,11,11,11,11,11,11,11,11,11,11,11,11,11,11,11,11,11,11,11,12,12,12,12,12,12,12,12,12,12,12,12,12,12,12,12,12,12,12,12,12,12,12,12,12,12,12,12,12,12,12,12,12,12,12,12,12,12,12,12,13,13,13,13,13,13,13,13,13,13,13,13,13,13,13,13,13,13,13,13,13,13,13,13,13,13,13,13,13,13,13,13,13,13,13,13,13,14,14,14,14,14,14,14,14,14,14,14,14,14,14,14,14,14,14,14,14,14,14,14,14,14,14,14,14,14,14,14,14,14,14,14,14,14,14,14,14,14,14,15,15,15,15,15,15,15,15,15,15,15,15,15,15,15,15,15,15,15,15,15,15,15,15,15,15,15,15,15,15,15,15,15,15,15,15,15,15,15,15,15,15,15,15,15,16,16,16,16,16,16,16,16,16,16,16,16,16,16,16,16,16,16,16,16,16,16,16,16,16,16,16,16,16,16,16,16,16,16,16,17,17,17,17,17,17,17,17,17,17,17,17,17,17,17,17,17,17,17,17,17,17,17,17,17,17,17,17,17,17,17,17,17,17,17,17,17,17,17,17,17,18,18,18,18,18,18,18,18,18,18,18,18,18,18,18,18,18,18,18,18,18,18,18,18,18,18,18,18,18,18,18,18,18,18,18,18,18,18,18,18,18,18,18,18,18,19,19,19,19,19,19,19,19,19,19,19,19,19,19,19,19,19,19,19,19,19,19,19,19,19,19,19,19,19,19,19,19,19,19,19,19,19,19,19,19,19,19,19,19,19,19,19,19,20,20,20,20,20,20,20,20,20,20,20,20,20,20,20,20,20,20,20,20,20,20,20,20,20,20,20,20,20,20,20,20,20,20,20,20,20,20,20,20,20,20,20,20,20,21,21,21,21,21,21,21,21,21,21,21,21,21,21,21,21,21,21,21,21,21,21,21,21,21,21,21,21,21,21,21,21,21,21,21,21,21,21,21,21,21,22,22,22,22,22,22,22,22,22,22,22,22,22,22,22,22,22,22,22,22,22,22,22,22,22,22,22,22,22,22,22,22,22,22,22,22,22,22,22,22,22,22,22,22,22,22,22,22,22,22,22,22,22,22,22,22,22,22,22,22,22,22,22,22,23,23,23,23,23,23,23,23,23,23,23,23,23,23,23,23,23,23,23,23,23,23,23,23,23,23,23,23,23,23,23,23,23,23,23,23,23,24,24,24,24,24,24,24,24,24,24,24,24,24,24,24,24,24,24,24,24,24,24,24,24,24,24,24,24,24,24,24,24,24,24,24,24,24,24,24,24,24,24,24,24,24,25,25,25,25,25,25,25,25,25,25,25,25,25,25,25,25,25,25,25,25,25,25,25,25,25,25,25,25,25,25,25,25,25,25,25,25,25,25,25,25,25,25,25,25,25,25,25,26,26,26,26,26,26,26,26,26,26,26,26,26,26,26,26,26,26,26,26,26,26,26,26,26,26,26,26,26,26,26,26,26,26,26,26,26,27,27,27,27,27,27,27,27,27,27,27,27,27,27,27,27,27,27,27,27,27,27,27,27,27,27,27,27,27,27,27,27,27,27,27,27,27,27,27,27,27,27,27,27,27,27,27,27,28,28,28,28,28,28,28,28,28,28,28,28,28,28,28,28,28,28,28,28,28,28,28,28,28,28,28,28,28,28,28,28,28,28,28,28,28,29,29,29,29,29,29,29,29,29,29,29,29,29,29,29,29,29,29,29,29,29,29,29,29,29,29,29,29,29,29,29,29,29,29,29,29,29,29,29,29,29,29,29,29,29,30,30,30,30,30,30,30,30,30,30,30,30,30,30,30,30,30,30,30,30,30,30,30,30,30,30,30,30,30,30,30,30,30,30,30,30,30,30,30,31,31,31,31,31,31,31,31,31,31,31,31,31,31,31,31,31,31,31,31,31,31,31,31,31,31,31,31,31,31,31,31,31,31,31,31,31,31,31,31,31,31,31,31,31,32,32,32,32,32,32,32,32,32,32,32,32,32,32,32,32,32,32,32,32,32,32,32,32,32,32,32,32,32,32,32,32,32,32,33,33,33,33,33,33,33,33,33,33,33,33,33,33,33,33,33,33,33,33,33,33,33,33,33,33,33,33,33,33,33,33,33,33,33,33,33,33,34,34,34,34,34,34,34,34,34,34,34,34,34,34,34,34,34,34,34,34,34,34,34,34,34,35,35,35,35,35,35,35,35,35,35,35,35,35,35,35,35,35,35,35,35,35,35,35,35,35,35,35,35,35,35,35,36,36,36,36,36,36,36,36,36,36,36,36,36,36,36,36,36,36,36,36,36,36,36,36,36,36,36,36,36,36,36,37,37,37,37,37,37,37,37,37,37,37,37,37,37,37,37,37,37,37,37,37,37,37,37,37,37,37,37,37,37,37,37,37,37,37,37,37,37,37,37,37,37,37,38,38,38,38,38,38,38,38,38,38,38,38,38,38,38,38,38,38,38,38,38,38,38,38,38,38,38,38,38,38,38,38,38,38,38,38,38,38,38,38,38,38,38,38,38,38,39,39,39,39,39,39,39,39,39,39,39,39,39,39,39,39,39,39,39,39,39,39,39,39,39,39,39,39,39,39,39,39,39,39,40,40,40,40,40,40,40,40,40,40,40,40,40,40,40,40,40,40,40,40,40,40,40,40,40,40,40,40,40,40,40,40,40,40,40,41,41,41,41,41,41,41,41,41,41,41,41,41,41,41,41,41,41,41,41,41,41,41,41,41,41,41,41,41,41,41,41,41,41,41,41,41,41,41,41,41,41,41,42,42,42,42,42,42,42,42,42,42,42,42,42,42,42,42,42,42,42,42,42,42,42,42,42,42,42,42,42,42,42,42,42,42,42,42,42,42,43,43,43,43,43,43,43,43,43,43,43,43,43,43,43,43,43,43,43,43,43,43,43,43,43,43,43,43,43,43,43,43,43,43,43,43,43,44,44,44,44,44,44,44,44,44,44,44,44,44,44,44,44,44,44,44,44,45,45,45,45,45,45,45,45,45,45,45,45,45,45,45,45,45,45,45,45,45,45,45,45,45,45,45,45,45,45,45,46,46,46,46,46,46,46,46,46,46,46,46,46,46,46,46,46,46,46,46,46,46,46,46,46,46,46,46,46,46,47,47,47,47,47,47,47,47,47,47,47,47,47,47,47,47,47,47,47,47,47,47,47,47,47,47,47,47,47,47,47,47,47,47,47,47,47,47,47,47,47,48,48,48,48,48,48,48,48,48,48,48,48,48,48,49,49,49,49,49,49,49,49,49,49,49,49,49,49,49,49,49,49,49,49,49,49,50,50,50,50,50,50,50,50,50,50,50,50,50,50,50,50,50,50,50,50,50,50,50,50,51,51,51,51,51,51,51,51,51,51,51,51,51,51,51,51,51,51,51,51,51,51,51,52,52,52,52,52,52,52,52,52,52,52,52,52,52,52,52,52,52,52,52,52,52,52,52,52,52,52,52,52,52,52,52,52,52,52,53,53,53,53,53,53,53,53,53,53,53,53,53,53,53,53,53,54,54,54,54,54,54,54,54,54,54,54,54,54,54,54,54,54,54,54,55,55,55,55,55,55,55,55,55,55,55,55,55,55,55,56,56,56,56,56,56,56,56,56,56,56,56,56,56,56,56,56,56,56,56,56,56,56,56,57,57,57,57,57,57,57,57,57,57,57,57,57,57,57,58,58,58,58,58,58,58,58,58,58,58,58,58,58,58,58,58,58,58,58,59,59,59,59,59,59,59,59,59,59,59,59,59,59,59,59,59,59,59,59,59,59,59,59,59,59,59,60,60,60,60,60,60,60,60,60,60,60,60,60,60,60,60,60,60,60,60,60,60,60,60,60,60,60,60,60,60,61,61,61,61,61,61,61,61,61,61,61,61,61,61,61,61,61,62,62,62,62,62,62,62,62,62,62,62,62,62,62,62,63,63,63,63,63,63,63,63,63,63,63,63,63,63,63,63,63,63,63,63,63,63,64,64,64,64,64,64,64,64,64,64,64,64,64,64,64,64,64,64,64,64,64,64,64,64,65,65,65,65,65,65,65,65,65,65,65,65,65,65,65,65,66,66,66,66,66,66,66,66,66,66,66,66,66,66,66,66,66,67,67,67,67,67,67,67,67,67,67,67,67,67,67,67,67,67,67,67,67,67,68,68,68,68,68,68,68,68,68,68,69,69,69,69,69,69,69,69,69,69,69,69,69,70,70,70,70,70,70,70,70,70,70,70,70,70,70,70,70,70,70,70,71,71,71,71,71,71,71,71,71,71,71,71,71,72,72,72,72,72,72,72,72,72,73,73,73,73,73,73,73,73,73,73,73,73,73,73,73,74,74,74,74,74,74,74,74,74,74,74,74,74,74,74,75,75,75,75,75,75,75,75,75,75,75,75,75,76,76,76,76,76,76,76,76,76,76,76,77,77,77,77,77,77,77,77,77,77,77,77,77,78,78,78,78,78,79,79,79,79,79,79,79,79,79,80,80,80,80,81,81,81,82,82,82,82,82,82,82,83,83,84,84,84,84,84,85,85,85,85,85,86,86,86,86,87,87,87,88,88,89,89,90];
unsucc = [3,4,5,7,8,9,11,13,14,15,18,20,21,24,25,26,27,32,34,36,40,42,45,48,61,4,6,8,9,10,11,12,13,15,16,17,18,19,20,21,24,26,28,29,30,32,33,34,36,38,39,40,41,42,43,44,48,50,51,52,53,67,75,5,6,7,10,12,14,16,23,27,28,29,30,33,44,45,55,61,6,7,8,9,10,11,12,13,14,15,16,17,18,19,20,21,22,23,24,25,26,28,29,30,31,32,33,34,35,36,38,39,40,41,42,43,44,46,47,48,49,50,51,52,53,54,55,56,57,58,60,62,67,68,69,73,75,78,80,81,86,7,8,9,10,11,12,13,14,15,17,18,19,20,21,22,24,25,26,27,29,31,32,34,36,37,40,42,44,45,48,51,52,53,59,61,8,9,10,11,12,13,14,15,16,17,18,19,20,21,24,25,26,28,29,30,31,32,33,34,36,38,39,40,41,42,43,44,45,48,50,51,52,53,55,56,57,59,61,63,67,68,75,9,10,12,14,15,16,17,19,21,22,23,26,27,28,29,30,33,35,37,39,44,45,47,55,61,10,11,12,13,14,16,17,18,19,20,22,23,24,25,27,28,29,30,31,32,33,34,35,36,37,43,44,45,46,47,48,49,50,51,52,53,54,55,56,59,61,63,73,81,11,13,14,15,16,18,20,21,23,24,25,26,27,28,29,31,32,33,34,36,38,40,42,43,45,48,55,57,61,63,12,14,15,16,17,19,20,21,22,23,24,25,26,27,28,29,30,31,33,35,37,39,40,41,44,45,47,55,59,61,13,14,15,16,17,18,19,20,21,22,23,24,25,26,27,28,29,31,32,33,34,35,36,37,38,40,42,43,45,46,47,48,51,52,55,57,61,62,63,68,14,15,16,17,19,20,21,22,23,24,25,26,27,28,29,30,31,33,35,36,37,38,39,40,41,42,44,45,47,48,51,55,59,61,67,74,78,15,16,17,18,19,20,21,22,23,24,26,27,28,29,30,32,33,34,36,37,38,39,40,41,42,43,44,45,48,49,50,51,52,53,54,61,63,67,73,74,75,78,16,17,18,19,20,22,23,24,25,27,28,29,30,31,32,33,34,35,36,37,40,42,43,44,45,46,47,48,49,50,51,52,53,54,55,56,58,59,61,63,72,73,76,78,81,17,18,19,20,21,22,24,25,26,27,28,29,30,31,32,34,36,37,39,40,41,42,43,44,45,48,51,52,53,55,57,59,61,63,68,18,20,21,23,24,25,26,27,28,29,30,31,32,33,34,36,38,39,40,41,42,43,44,45,48,49,50,53,54,55,57,59,61,63,67,68,73,74,77,78,80,19,20,21,22,23,24,25,26,27,28,29,30,31,33,34,35,36,37,38,39,40,41,42,44,45,47,48,49,50,51,52,55,56,57,59,61,62,65,67,68,69,74,75,78,80,20,21,23,24,25,26,27,28,29,30,31,32,33,34,35,36,38,39,40,41,42,43,44,45,46,48,49,50,53,54,55,57,58,59,60,61,62,63,64,67,68,72,73,74,76,77,78,80,21,22,23,26,27,28,29,30,32,33,34,35,36,37,38,39,40,41,42,43,44,45,46,47,48,49,50,51,52,53,54,55,57,58,60,61,68,72,73,75,78,80,81,83,86,22,23,24,25,27,28,29,30,31,32,33,34,35,36,37,40,42,43,44,45,46,47,48,49,50,51,52,53,54,55,56,58,59,61,63,72,73,76,78,81,86,23,24,25,26,27,28,29,30,31,32,33,34,35,36,37,38,39,40,41,42,43,44,45,46,48,49,50,51,52,53,54,55,56,57,58,59,60,61,62,63,64,65,66,67,68,69,71,72,73,74,75,76,77,78,79,80,81,82,83,84,85,87,89,90,24,25,26,27,28,29,30,31,32,33,34,36,37,38,39,40,41,42,43,44,45,48,50,51,52,53,55,56,57,59,61,63,67,68,74,75,77,26,27,28,29,30,32,33,34,35,36,37,38,39,40,41,42,43,44,45,46,47,48,49,50,51,52,53,54,55,57,58,60,61,67,68,72,73,74,75,77,78,80,81,83,86,26,27,28,29,30,32,33,34,35,36,37,38,39,40,41,42,43,44,45,46,47,48,49,50,51,52,53,54,55,57,58,60,61,63,67,68,72,73,74,75,77,78,80,81,83,86,90,27,28,29,30,31,32,33,34,35,36,37,40,42,43,44,45,46,47,48,49,50,51,52,53,54,55,56,58,59,61,63,72,73,76,78,81,86,28,29,30,31,32,33,34,35,36,38,39,40,41,42,43,44,45,46,47,48,49,50,51,52,53,54,55,56,57,58,59,60,61,62,63,64,67,68,69,72,73,75,76,78,80,81,83,86,29,30,31,32,33,34,35,36,37,38,39,40,41,42,44,45,46,48,49,50,51,52,53,54,56,58,59,60,61,67,72,73,74,75,78,81,86,30,32,33,34,35,36,37,38,39,40,41,42,43,44,45,46,47,48,49,50,51,52,53,54,55,56,57,58,59,60,61,63,67,68,72,74,75,76,77,78,80,81,83,86,90,31,32,33,34,35,36,37,38,40,42,43,44,45,46,47,48,49,50,51,52,53,54,55,56,57,58,59,61,62,63,64,68,69,72,73,76,81,86,87,32,33,34,35,36,37,38,39,40,41,42,43,44,45,46,47,48,49,50,51,52,53,54,55,56,57,58,59,60,61,63,67,68,72,73,74,75,76,77,78,80,81,83,86,90,33,34,35,36,37,38,39,40,41,42,44,45,47,48,49,50,51,52,55,56,57,59,61,62,65,67,68,69,70,73,74,75,78,80,34,35,36,37,38,39,40,41,42,43,44,45,46,47,48,49,51,52,53,54,55,57,58,59,61,62,63,64,65,67,68,70,73,74,77,78,81,86,35,36,37,38,39,40,41,42,43,44,45,46,47,48,51,52,53,55,59,61,63,67,74,77,78,36,37,38,39,40,41,42,43,44,45,48,49,50,51,52,53,54,55,56,57,59,61,63,67,68,73,74,75,77,78,80,37,39,40,41,43,44,45,47,48,49,50,51,52,53,54,55,56,57,59,61,62,63,64,65,66,68,69,70,71,73,75,38,39,40,41,42,43,44,45,46,47,48,49,50,51,52,53,54,55,56,57,58,59,60,61,62,63,64,67,68,69,72,73,74,75,76,77,78,80,81,83,86,87,90,39,40,41,42,43,44,45,46,47,48,49,50,51,52,53,54,55,56,57,58,59,60,61,62,63,64,65,66,68,69,70,71,72,73,75,76,78,79,80,81,83,84,85,86,87,89,40,42,43,44,45,46,47,48,49,50,51,52,53,54,55,56,57,58,59,61,62,63,64,68,69,72,73,76,78,80,81,83,86,87,43,44,45,46,47,48,49,50,51,52,53,54,55,56,57,58,59,61,62,63,64,65,66,67,68,69,70,71,72,73,76,79,81,86,87,42,43,44,45,46,47,48,49,50,51,52,53,54,55,56,57,58,59,61,62,63,64,65,66,67,68,69,70,71,72,73,74,76,77,78,79,80,81,83,84,86,87,90,43,44,45,46,47,48,49,50,51,52,53,54,55,56,57,58,59,60,61,62,63,64,65,66,67,68,69,70,71,72,73,75,76,79,81,82,86,87,44,45,46,47,48,49,50,51,52,53,54,55,56,57,58,59,60,61,62,65,66,67,68,69,70,72,73,74,75,77,78,80,81,83,86,87,90,45,46,47,48,49,51,52,55,57,61,62,63,65,67,68,70,73,74,78,80,46,47,48,49,50,51,52,53,54,55,56,57,58,60,62,65,66,67,68,69,70,71,73,74,75,77,78,80,81,82,86,47,48,49,50,51,52,53,54,55,56,57,59,61,62,63,64,65,66,67,68,69,70,71,73,74,75,77,78,80,82,48,49,50,51,52,53,54,55,56,57,58,59,60,61,62,63,64,65,66,67,68,69,71,72,73,74,75,76,77,78,79,80,81,82,83,84,85,86,87,89,90,49,50,55,57,59,61,62,63,65,67,70,73,74,78,50,51,52,53,55,56,57,59,61,62,63,64,65,67,68,69,70,74,75,77,78,80,51,52,53,54,55,57,58,59,60,61,62,63,64,65,67,68,70,73,74,77,78,80,81,86,53,54,55,57,58,59,60,61,62,63,64,65,67,68,70,72,73,74,76,77,78,80,86,53,54,55,56,57,58,59,60,61,62,63,64,65,66,67,68,69,70,71,72,73,74,76,77,78,79,80,81,83,84,85,86,87,89,90,55,56,57,59,61,62,63,65,67,68,69,70,73,74,75,78,80,55,56,57,59,61,62,63,64,65,67,68,69,70,73,74,75,77,78,80,56,58,59,60,61,63,67,72,73,74,75,76,78,81,86,57,58,59,60,61,62,63,64,65,67,68,70,72,73,74,75,76,77,78,80,81,83,86,90,58,59,60,61,63,67,72,73,74,75,76,77,78,81,86,59,61,62,63,64,65,66,67,68,69,70,71,73,74,75,77,78,80,81,82,60,61,62,63,64,65,66,67,68,69,70,71,72,73,74,75,77,78,80,81,82,83,86,87,88,90,91,61,62,63,64,65,66,67,68,69,70,71,72,73,74,75,76,77,78,79,80,81,82,83,84,85,86,87,88,90,91,62,65,66,67,68,69,70,71,73,74,75,77,78,80,81,82,86,63,67,68,72,73,74,75,76,77,78,80,81,83,86,90,65,66,67,68,69,70,71,72,73,74,75,76,77,78,80,81,82,83,86,87,88,90,65,66,67,68,69,70,71,72,73,74,75,76,77,78,79,80,81,82,83,84,86,87,88,90,67,68,69,72,73,74,75,76,77,78,80,81,83,86,87,90,67,68,69,70,72,73,74,75,76,77,78,80,81,83,86,87,90,68,69,70,71,72,73,75,76,78,79,80,81,82,83,84,85,86,87,88,89,91,70,72,73,74,75,76,77,78,81,86,70,72,73,74,75,76,77,78,80,81,83,86,90,71,72,73,74,75,76,77,78,79,80,81,82,83,84,85,86,87,89,90,72,73,74,75,76,77,78,80,81,83,86,87,90,73,74,75,77,78,80,81,82,86,74,75,76,77,78,79,80,81,82,83,86,87,88,90,91,75,76,78,79,80,81,82,83,84,85,86,87,88,89,91,76,77,78,79,80,81,83,84,85,86,87,89,90,77,78,80,81,82,83,86,87,88,90,91,78,79,80,81,82,83,84,85,86,87,88,89,91,79,81,82,86,87,80,81,82,83,86,87,88,90,91,81,82,86,87,82,86,87,83,84,85,86,87,89,90,86,87,86,87,88,90,91,86,87,88,90,91,87,88,89,90,88,90,91,89,90,90,91,91];

USEFUL_RES = [{},
	{1,3,4,9,10,11,12,14,16,17,19,21,22,24,28,29},
	{6,8,25,26},
	{1,2,3,4,5,6,7,8,13,14,16,20,25,26,28},
	{1,3,9,10,11,12,14,16,17,19,21,22,24,28,29},
	{2,3,7,13,20},
	{1,2,3,4,5,6,7,8,10,12,13,14,15,16,18,20,21,23,24,25,26,27,28},
	{1,3,4,9,10,11,12,14,15,16,17,18,19,21,22,23,24,27,28,29},
	{2,3,7,11,13,17,19,20,28,29},
	{1,2,3,4,5,6,7,8,10,11,12,13,14,16,17,19,20,21,23,24,25,26,27,28,29},
	{1,3,4,10,11,12,14,15,16,17,18,19,21,23,24,27,28,29},
	{1,2,3,4,6,8,10,11,12,14,16,17,19,21,23,24,25,26,27,28,29},
	{1,2,3,4,6,7,8,10,11,12,13,14,15,16,17,18,19,20,21,23,24,25,26,27,28,29},
	{3,6,8,11,17,19,25,26,28,29},
	{1,2,3,7,10,12,13,14,16,20,21,23,24,28},
	{1,3,4,5,6,8,10,11,12,13,14,15,16,17,18,19,21,23,24,25,26,27,28,29},
	{1,3,6,8,10,11,12,14,16,17,19,21,23,24,25,26,28,29},
	{1,2,3,6,7,8,9,10,11,12,13,14,16,17,19,20,21,22,24,25,26,28,29},
	{1,2,3,4,7,10,11,12,13,14,15,16,17,18,19,20,21,23,24,27,28,29},
	{1,2,3,4,7,9,10,11,12,13,14,15,16,17,18,19,20,21,22,23,24,27,28,29},
	{1,2,3,4,7,9,10,11,12,13,14,15,16,17,18,19,20,21,22,23,24,27,28,29},
	{1,3,5,6,8,9,10,11,12,13,14,16,17,19,21,22,23,24,25,26,28,29},
	{1,2,3,4,5,6,7,8,10,11,12,13,14,15,16,17,18,19,20,21,23,24,25,26,27,28,29},
	{1,3,4,15,18,23,27},
	{3,5,6,8,9,11,13,17,19,22,25,26,28,29},
	{6,8,11,17,19,25,26,28,29},
	{1,3,5,6,8,10,11,12,13,14,16,17,19,21,24,25,26,28,29},
	{1,2,3,4,6,7,8,10,12,13,14,16,20,21,23,24,25,26,27,28},
	{1,3,4,5,6,8,9,10,11,12,13,14,16,17,19,21,22,23,24,25,26,27,28,29},
	{1,3,4,6,8,15,18,23,25,26,27},
	{1,3,4,5,6,8,9,10,11,12,13,14,16,17,19,21,22,23,24,25,26,28,29},
	{1,3,10,12,14,16,21,24,28},
	{1,3,5,6,8,9,10,11,12,13,14,16,17,19,21,22,23,24,25,26,28,29},
	{1,2,3,4,7,10,12,13,14,15,16,18,20,21,23,24,27,28},
	{2,3,6,7,8,11,13,17,19,20,25,26,28,29},
	{1,3,4,5,6,8,9,10,11,12,13,14,15,16,17,18,19,21,22,23,24,25,26,27,28,29},
	{1,2,3,7,10,12,13,14,16,20,21,23,24,28},
	{1,3,5,6,8,10,11,12,13,14,16,17,19,21,23,24,25,26,28,29},
	{1,2,3,4,6,7,8,10,12,13,14,16,20,21,23,24,25,26,27,28},
	{1,3,4,15,18,23,27},
	{1,2,3,5,6,8,10,11,12,13,14,16,17,19,21,24,25,26,28,29},
	{1,2,3,4,6,7,8,11,13,14,15,16,17,18,19,20,23,25,26,27,28,29},
	{1,2,3,7,9,10,11,12,13,14,16,17,19,20,21,22,23,24,28,29},
	{1,3,4,9,10,11,12,14,16,17,19,21,22,23,24,28,29},
	{1,2,3,4,5,6,7,8,10,12,13,14,15,16,18,20,21,23,24,25,26,27,28},
	{1,2,3,4,5,6,8,10,11,12,13,14,15,16,17,18,19,21,23,24,25,26,27,28,29},
	{2,3,7,13,20},
	{1,2,3,4,5,6,7,8,13,20,23,25,26,27},
	{3,5,6,8,13,25,26},
	{1,2,3,4,5,6,8,11,13,15,17,18,19,23,25,26,27,28,29},
	{1,3,6,8,9,10,11,12,14,16,17,19,21,22,24,25,26,28,29},
	{1,2,3,4,5,6,7,8,10,12,13,14,15,16,18,20,21,23,24,25,26,27,28},
	{1,3,4,15,18,23,27},
	{1,3,4,6,8,9,10,11,12,14,15,16,17,18,19,21,22,23,24,25,26,27,28,29},
	{1,3,10,12,14,16,21,23,24,28},
	{1,3,4,5,6,8,10,11,12,13,14,15,16,17,18,19,21,23,24,25,26,27,28,29},
	{1,2,3,4,5,6,7,8,10,11,12,13,14,16,17,19,20,21,24,25,26,28,29},
	{1,3,4,6,8,9,10,11,12,14,15,16,17,18,19,21,22,23,24,25,26,27,28,29},
	{1,3,4,9,10,11,12,14,15,16,17,18,19,21,22,23,24,27,28,29},
	{1,2,3,4,7,10,12,13,14,16,20,21,23,24,28},
	{1,2,3,5,6,7,8,9,10,11,12,13,14,16,17,19,20,21,22,24,25,26,28,29},
	{3,6,8,25,26},
	{1,3,4,6,8,10,11,12,14,15,16,17,18,19,21,23,24,25,26,27,28,29},
	{1,3,5,6,8,10,11,12,13,14,16,17,19,21,23,24,25,26,28,29},
	{1,2,3,4,5,6,7,8,9,11,13,17,19,20,22,23,25,26,27,28,29},
	{1,2,3,4,6,7,8,10,11,12,13,14,15,16,17,18,19,20,21,23,24,25,26,27,28,29},
	{1,2,3,4,7,10,11,12,13,14,16,20,21,23,24,27,28,29},
	{1,2,3,4,5,6,7,8,10,12,13,14,15,16,18,20,21,23,24,25,26,27,28},
	{1,3,10,12,14,16,21,23,24,28},
	{11,17,19,28,29},
	{1,2,3,4,5,6,8,9,10,11,12,13,14,16,17,19,21,22,23,24,25,26,28,29},
	{1,2,3,4,6,7,8,10,11,12,13,14,15,16,17,18,19,20,21,23,24,25,26,27,28,29},
	{1,3,4,5,6,8,13,15,18,23,25,26,27},
	{1,2,3,5,6,8,10,12,13,14,16,21,24,25,26,28},
	{3,6,8,25,26},
	{1,2,3,4,5,6,7,8,9,10,11,12,13,14,16,17,19,20,21,22,23,24,25,26,27,28,29},
	{1,2,3,4,5,6,7,8,11,13,15,17,18,19,20,23,25,26,27,28,29},
	{1,3,4,5,6,8,10,12,13,14,15,16,18,21,23,24,25,26,27,28},
	{1,3,6,8,10,12,14,16,21,23,24,25,26,28},
	{1,3,10,11,12,14,16,17,19,21,24,28,29},
	{1,3,10,11,12,14,16,17,19,21,24,28,29},
	{1,2,3,7,10,12,13,14,16,20,21,24,28},
	{2,3,11,14,16,17,19,28,29},
	{1,3,4,10,12,14,16,21,24,28},
	{1,3,4,5,6,8,9,10,11,12,13,14,15,16,17,18,19,21,22,23,24,25,26,27,28,29},
	{1,3,4,5,6,8,10,12,13,14,15,16,18,21,23,24,25,26,27,28},
	{1,2,3,4,6,7,8,10,11,12,13,14,15,16,17,18,19,20,21,23,24,25,26,27,28,29},
	{1,3,10,12,14,16,21,23,24,28},
	{1,2,3,4,5,6,7,8,9,10,11,12,13,14,15,16,17,18,19,20,21,22,23,24,25,26,27,28,29},
	{1,2,3,4,7,9,10,11,12,13,14,16,17,19,20,21,22,24,28,29},
	{1,2,3,4,7,10,11,12,13,14,16,17,19,20,21,23,24,27,28,29},
	{}];

POTENTIAL_ACT = [{2,4,5,7,8,10,11,12,13,15,16,17,18,19,20,21,22,23,24,27,28,29,30,31,32,33,34,36,37,38,39,40,41,42,43,44,45,46,48,50,51,52,53,54,55,56,57,58,59,60,61,63,64,65,66,67,68,69,71,72,73,74,76,77,78,79,80,81,82,84,85,86,87,88,89,90,91},
	{4,6,7,9,10,12,13,15,18,19,20,21,23,28,34,35,37,39,41,42,43,45,46,47,48,50,52,57,60,61,65,66,67,68,71,72,74,76,77,82,83,87,89,90,91},
	{2,4,5,6,7,8,9,10,11,12,13,14,15,16,17,18,19,20,21,22,23,24,25,27,28,29,30,31,32,33,34,35,36,37,38,39,40,41,42,43,44,45,46,47,48,49,50,51,52,53,54,55,56,57,58,59,60,61,62,63,64,65,66,67,68,69,71,72,73,74,75,76,77,78,79,80,81,82,83,84,85,86,87,88,89,90,91},
	{2,4,7,8,10,11,12,13,16,19,20,21,23,24,28,29,30,31,34,36,39,40,42,44,45,46,48,50,52,53,54,56,57,58,59,60,63,65,66,67,68,71,72,73,76,77,78,84,85,86,87,89,90,91},
	{4,7,10,16,22,23,25,27,29,31,33,36,38,41,45,46,48,49,50,52,56,57,61,64,65,68,71,73,74,76,77,78,85,86,89},
	{3,4,7,10,12,13,14,16,17,18,22,23,25,26,27,28,29,30,31,33,35,36,38,39,41,42,45,46,48,49,50,51,52,54,56,57,58,61,62,63,64,65,66,68,71,72,73,74,75,76,77,78,79,85,86,87,89},
	{4,6,7,9,10,13,15,18,19,20,21,23,28,34,35,37,39,42,43,45,47,48,52,57,60,61,65,66,67,68,72,76,77,82,87,89,90,91},
	{3,4,7,10,12,13,14,16,17,18,22,23,25,26,27,28,29,30,31,33,35,36,38,39,41,42,45,46,48,49,50,51,52,54,56,57,58,61,62,63,64,65,66,68,71,72,73,74,75,76,77,78,79,85,86,87,89},
	{2,5,8,18,20,21,22,25,29,31,33,36,43,44,51,54,58,59,61,65,71,76,85,89,90},
	{2,5,7,8,10,11,12,13,15,16,17,18,19,20,21,22,23,27,28,29,31,32,33,34,36,37,38,39,41,43,44,45,46,51,52,54,55,56,57,58,59,60,61,63,64,66,67,68,69,71,72,74,76,78,79,80,81,82,84,85,86,87,88,89,90,91},
	{2,5,8,9,10,11,12,13,14,16,17,18,19,20,21,22,23,25,26,27,29,31,33,35,36,38,41,42,43,44,46,50,51,54,56,57,58,59,61,63,64,65,66,67,70,71,72,76,77,80,81,83,85,87,89,90,91},
	{2,5,7,8,10,11,12,13,15,16,17,18,19,20,21,22,23,27,28,29,31,32,33,34,36,37,38,39,41,43,44,45,46,51,52,54,55,56,57,58,59,60,61,63,64,66,67,68,69,71,72,74,76,78,79,80,81,82,84,85,86,87,88,89,90,91},
	{4,6,7,9,10,13,15,16,18,19,20,21,22,23,25,27,28,29,31,33,34,35,36,37,38,39,41,42,43,45,46,47,48,49,50,52,56,57,60,61,64,65,66,67,68,71,72,73,74,76,77,78,82,85,86,87,89,90,91},
	{2,4,5,7,8,10,11,12,13,15,16,17,18,19,20,21,22,23,27,28,29,31,32,33,34,36,37,38,39,41,42,43,44,45,46,51,52,54,55,56,57,58,59,60,61,63,64,66,67,68,69,71,72,74,76,78,79,80,81,82,83,84,85,86,87,88,89,90,91},
	{7,8,11,13,16,19,20,21,23,24,30,34,36,40,42,45,46,50,52,53,54,56,58,59,63,66,68,72,73,77,78,85,86,87,89},
	{2,4,5,7,8,10,11,12,13,15,16,17,18,19,20,21,22,23,27,28,29,31,32,33,34,36,37,38,39,41,42,43,44,45,46,51,52,54,55,56,57,58,59,60,61,63,64,66,67,68,69,71,72,74,76,78,79,80,81,82,83,84,85,86,87,88,89,90,91},
	{2,5,8,9,10,11,12,13,14,16,17,18,19,20,21,22,23,25,26,27,29,31,33,35,36,38,41,42,43,44,46,50,51,54,56,57,58,59,61,63,64,65,66,70,71,72,76,77,80,81,83,85,87,89,90,91},
	{7,8,11,13,16,19,20,21,23,24,30,34,36,40,42,45,46,50,52,53,54,56,58,59,63,66,68,72,73,77,78,85,86,87,89},
	{2,5,8,9,10,11,12,13,14,16,17,18,19,20,21,22,23,25,26,27,29,31,33,35,36,38,41,42,43,44,46,50,51,54,56,57,58,59,61,63,64,65,66,70,71,72,76,77,80,81,83,85,87,89,90,91},
	{4,6,7,9,10,13,15,18,19,20,21,23,28,34,35,37,39,42,43,45,47,48,52,57,60,61,65,66,67,68,72,76,77,82,87,89,90,91},
	{2,5,7,8,10,11,12,13,15,16,17,18,19,20,21,22,23,27,28,29,31,32,33,34,36,37,38,39,41,43,44,45,46,51,52,54,55,56,57,58,59,60,61,63,64,66,67,68,69,71,72,74,76,78,79,80,81,82,84,85,86,87,88,89,90,91},
	{2,5,8,18,20,21,22,25,29,31,33,36,43,44,51,54,58,59,61,65,71,76,85,89,90},
	{7,8,10,11,12,13,15,16,17,19,20,21,22,23,24,28,29,30,31,33,34,36,37,38,39,40,42,43,44,45,46,48,50,52,53,54,55,56,58,59,60,63,64,65,66,67,68,69,71,72,73,76,77,78,79,85,86,87,88,89,91},
	{2,5,7,8,10,11,12,13,15,16,17,18,19,20,21,22,23,27,28,29,31,32,33,34,36,37,38,39,41,43,44,45,46,51,52,54,55,56,57,58,59,60,61,63,64,66,67,68,69,71,72,74,76,78,79,80,81,82,84,85,86,87,88,89,90,91},
	{3,4,7,10,12,13,14,16,17,18,22,23,25,26,27,28,29,30,31,33,35,36,38,39,41,42,45,46,48,49,50,51,52,54,56,57,58,61,62,63,64,65,66,68,71,72,73,74,75,76,77,78,79,85,86,87,89},
	{3,4,7,10,12,13,14,16,17,18,22,23,25,26,27,28,29,30,31,33,35,36,38,39,41,42,45,46,48,49,50,51,52,54,56,57,58,61,62,63,64,65,66,68,71,72,73,74,75,76,77,78,79,85,86,87,89},
	{7,8,10,11,12,13,16,19,20,21,23,24,28,29,30,34,36,39,40,42,45,46,48,50,52,53,54,56,58,59,63,65,66,67,68,72,73,76,77,78,85,86,87,89,91},
	{2,4,5,7,8,9,10,11,12,13,14,15,16,17,18,19,20,21,22,23,25,26,27,28,29,31,32,33,34,35,36,37,38,39,41,42,43,44,45,46,50,51,52,54,55,56,57,58,59,60,61,63,64,65,66,67,68,69,70,71,72,74,76,77,78,79,80,81,82,83,84,85,86,87,88,89,90,91},
	{2,5,8,9,10,11,12,13,14,16,17,18,19,20,21,22,23,25,26,27,29,31,33,35,36,38,41,42,43,44,46,50,51,54,56,57,58,59,61,63,64,65,66,67,70,71,72,76,77,80,81,83,85,87,89,90,91}];
